NODE_COORD_SECTION
Bucuresti 600 500
Cluj-Napoca 350 250
Timisoara 150 300
Iasi 700 150
Constanta 800 550
Craiova 400 550
Brasov 500 350
EDGE_WEIGHT_SECTION
Bucuresti Constanta 225
Bucuresti Brasov 166
Bucuresti Craiova 230
Brasov Cluj-Napoca 270
Cluj-Napoca Timisoara 315
Brasov Iasi 310
Craiova Timisoara 345
EOF